Read MPS format model from file dat/rmp/DER_96_16384_30.mps
Reading time = 2.30 seconds
: 16480 rows, 78112 columns, 6767559 nonzeros
Gurobi Optimizer version 9.0.0 build v9.0.0rc2 (linux64)
Optimize a model with 16480 rows, 78112 columns and 6767559 nonzeros
Model fingerprint: 0x46022094
Coefficient statistics:
  Matrix range     [4e-05, 1e+01]
  Objective range  [8e-01, 1e+03]
  Bounds range     [1e+05, 1e+05]
  RHS range        [1e+00, 1e+00]
Ordering time: 0.03s

Barrier statistics:
 AA' NZ     : 1.485e+06
 Factor NZ  : 1.662e+06 (roughly 50 MBytes of memory)
 Factor Ops : 1.737e+08 (less than 1 second per iteration)
 Threads    : 1

                  Objective                Residual
Iter       Primal          Dual         Primal    Dual     Compl     Time
   0   5.02490846e+09 -4.67680329e+08  8.35e+07 2.11e-02  1.09e+06     2s
   1   8.46298135e+07 -6.33398912e+07  1.28e+06 1.82e-12  1.75e+04     2s
   2   8.21822144e+06 -1.85091328e+07  1.21e+05 3.64e-12  1.83e+03     3s
   3   2.00908998e+05 -1.03374325e+07  1.11e+03 5.46e-12  1.47e+02     3s
   4   1.14821376e+05 -6.60704528e+05  3.86e-10 5.46e-12  9.92e+00     3s
   5   1.14708392e+05  7.80656491e+04  4.25e-10 3.64e-12  4.69e-01     4s
   6   1.14115990e+05  1.09225195e+05  4.43e-10 3.64e-12  6.25e-02     4s
   7   1.13567775e+05  1.10791608e+05  3.79e-10 1.82e-12  3.55e-02     5s
   8   1.13194287e+05  1.11677890e+05  1.94e-09 5.46e-12  1.94e-02     6s
   9   1.12947684e+05  1.12202036e+05  1.14e-09 3.64e-12  9.53e-03     6s
  10   1.12751750e+05  1.12437217e+05  1.97e-09 3.64e-12  4.02e-03     7s
  11   1.12686147e+05  1.12523279e+05  2.47e-09 5.46e-12  2.08e-03     7s
  12   1.12663527e+05  1.12554774e+05  2.80e-09 3.64e-12  1.39e-03     8s
  13   1.12645424e+05  1.12578358e+05  6.62e-09 3.64e-12  8.58e-04     8s
  14   1.12632669e+05  1.12589690e+05  8.74e-09 1.82e-12  5.50e-04     9s
  15   1.12621834e+05  1.12596533e+05  7.53e-09 3.64e-12  3.24e-04     9s
  16   1.12618174e+05  1.12598745e+05  6.23e-09 1.82e-12  2.48e-04    10s
  17   1.12614397e+05  1.12600827e+05  8.74e-09 1.82e-12  1.74e-04    10s
  18   1.12613001e+05  1.12602048e+05  8.08e-09 1.82e-12  1.40e-04    11s
  19   1.12610911e+05  1.12602789e+05  9.47e-09 1.82e-12  1.04e-04    11s
  20   1.12609816e+05  1.12603714e+05  9.59e-09 1.82e-12  7.80e-05    12s
  21   1.12608586e+05  1.12604090e+05  1.59e-08 1.82e-12  5.75e-05    12s
  22   1.12608156e+05  1.12604424e+05  1.39e-08 3.64e-12  4.77e-05    13s
  23   1.12607797e+05  1.12604639e+05  9.37e-09 1.82e-12  4.04e-05    13s
  24   1.12607317e+05  1.12605038e+05  1.11e-08 3.64e-12  2.91e-05    14s
  25   1.12606907e+05  1.12605333e+05  1.07e-08 1.82e-12  2.01e-05    14s
  26   1.12606547e+05  1.12605519e+05  1.76e-08 1.82e-12  1.31e-05    15s
  27   1.12606233e+05  1.12605632e+05  2.02e-08 1.82e-12  7.69e-06    16s
  28   1.12606082e+05  1.12605684e+05  3.30e-08 1.82e-12  5.09e-06    16s
  29   1.12605935e+05  1.12605736e+05  4.61e-08 1.82e-12  2.55e-06    17s
  30   1.12605904e+05  1.12605768e+05  3.82e-08 1.82e-12  1.74e-06    17s
  31   1.12605839e+05  1.12605819e+05  9.17e-08 3.64e-12  2.56e-07    18s
  32   1.12605827e+05  1.12605826e+05  7.08e-07 3.64e-12  9.85e-09    19s

Barrier solved model in 32 iterations and 18.50 seconds
Optimal objective 1.12605827e+05

Solve time: 18.509076671
Barrier iterations: 32
